<number of tasks>
50

<cycle time>
1000

<order strength>
0.896


<task times>
1 429
2 626
3 476
4 691
5 455
6 317
7 599
8 511
9 410
10 323
11 593
12 414
13 698
14 425
15 440
16 445
17 482
18 594
19 546
20 541
21 419
22 461
23 411
24 405
25 565
26 538
27 422
28 566
29 436
30 747
31 484
32 470
33 574
34 526
35 513
36 203
37 530
38 371
39 560
40 342
41 345
42 421
43 484
44 434
45 487
46 416
47 578
48 632
49 474
50 601

<precedence relations>
1,2
1,3
1,4
1,5
2,6
2,7
2,8
3,16
4,6
4,7
4,8
5,6
5,7
5,8
6,9
6,10
7,9
7,10
8,9
8,10
9,11
9,12
9,13
10,11
10,12
10,13
11,14
11,15
11,16
12,14
12,15
12,16
13,14
13,15
13,16
14,17
14,18
14,19
14,20
14,21
15,17
15,18
15,19
15,20
15,21
16,17
16,18
16,19
16,20
16,21
17,22
17,23
18,22
18,23
19,22
19,23
20,22
20,23
21,22
21,23
22,24
22,25
22,26
23,24
23,25
23,26
24,27
24,28
24,29
25,34
25,40
25,41
25,42
26,27
27,30
27,31
27,32
28,30
28,31
28,32
29,30
29,32
29,34
30,33
30,45
31,33
31,34
31,35
32,35
33,42
34,48
35,36
36,37
36,38
36,39
37,40
38,40
38,41
38,42
39,43
39,44
39,45
40,43
40,44
41,43
41,44
41,45
42,43
43,48
44,46
44,47
45,46
45,47
45,48
46,50
48,49
48,50

<end>
